p cnf 12 50 
7 -12 -5 0
-6 -9 -2 0
-4 9 10 0
-2 -11 5 0
-5 -3 -11 0
9 10 4 0
-3 -10 -6 0
-8 3 -2 0
-11 -1 7 0
-8 2 3 0
1 12 -5 0
5 4 -1 0
1 5 11 0
6 -9 -2 0
10 -2 4 0
12 -4 -8 0
-10 2 -4 0
7 -5 3 0
4 5 -2 0
-2 -10 -5 0
7 8 6 0
5 -9 -11 0
-4 -7 1 0
-12 -4 2 0
-4 -9 -3 0
8 3 7 0
4 7 3 0
-5 8 -11 0
-2 -6 4 0
-8 -5 1 0
1 -9 -12 0
-11 3 -6 0
6 -3 -8 0
6 3 -1 0
-6 9 2 0
-7 3 -4 0
-9 -10 -7 0
9 10 -8 0
11 -1 -7 0
-12 5 9 0
-1 -5 8 0
-2 1 -11 0
-1 5 11 0
9 2 -3 0
-2 8 -12 0
10 -5 -8 0
8 10 1 0
9 11 6 0
-9 5 -2 0
2 -6 5 0
